SimulationType                MonteCarlo
NumberOfCycles                20000
NumberOfInitializationCycles  0
PrintEvery                    1000
PrintPropertiesEvery          1000

Forcefield                    Henry_Ref_ForceField

Framework 0
FrameworkName [CoREMOF][FSR]GIQXOU
RemoveAtomNumberCodeFromLabel no
UnitCells 3 3 2
ExternalTemperature 298
UseChargesFromCIFFile         yes

Component 0 MoleculeName             CO2
            MoleculeDefinition       ExampleDefinitions
            IdealGasRosenbluthWeight 1
            WidomProbability         1.0
            CreateNumberOfMolecules  0
